nNurses = 63;
nHours = 36;
minHours = 5;
maxHours = 13;
maxConsec = 11;
maxPresence = 25;
demand = [17, 17, 22, 18, 13, 14, 13, 18, 14, 13, 10, 6, 5, 8, 6, 5, 7, 7, 12, 10, 14, 16, 20, 15, 18, 18, 18, 13, 10, 5, 8, 6, 10, 8, 13, 16];
